[768600, 733700, 733700, 733700, 733700, 733700, 733700, 733700, 733700, 733700, 733700, 733700, 733700, 733700, 733700, 733700, 733700, 733700, 733700, 733700, 733700, 733700, 733700, 733700, 729100, 729100, 729100, 729100, 729100, 729100, 729100, 729100, 729100, 729100, 729100, 729100, 729100, 729100, 729100, 729100, 729100, 729100, 729100, 729100, 729100, 729100, 729100, 729100, 729100, 729100, 729100, 729100, 729100, 729100, 729100, 729100, 729100, 729100, 729100, 705900, 705900, 705900, 705900, 705900, 705900, 705900, 705900, 705900, 705900, 705900, 705900, 705900, 705900, 705900, 705900, 705900, 705900, 705900, 705900, 705900, 705900, 703800, 701700, 701700, 701700, 701700, 696800, 696800, 696800, 696800, 696800, 696800, 696800, 696800, 696800, 690400, 690400, 690000, 690000, 690000, 675800, 675800, 675800, 675800, 675800, 675800, 675800, 675800, 675800, 672800, 672800, 672800, 672800, 672800, 655500, 655500, 655500, 655500, 655500, 655500, 655500, 655500, 655500, 655500, 655500, 655500, 655500, 655500, 655500, 655500, 655500, 655500, 655500, 655500, 655500, 655500, 655500, 655500, 655500, 655500, 655500, 655500, 655500, 655500, 655500, 655500, 655500, 655500, 655500, 655500, 655500, 655500, 655500, 655500, 655500, 655500, 655500, 655500, 655500, 655500, 655500, 655500, 655500, 655500, 655500, 655500, 655500, 655500, 655500, 655500, 655500, 651600, 651600, 651600, 651600, 651600, 651600, 651600, 651600, 651600, 651600, 651600, 651600, 651600, 651600, 651600, 651600, 651600, 651600, 651600, 651600, 651600, 651600, 651600, 651600, 651600, 651600, 651600, 651600, 651600, 651600, 651600, 651600, 651600, 651600, 651600, 651600, 651600, 651600, 651600, 651600, 651600, 651600, 651600, 651600, 651600, 651600, 651600, 651600, 651600, 651600, 651600, 651600, 651600, 651600, 651600, 651600, 651600, 651600, 651600, 651600, 651600, 651600, 651600, 651600, 651600, 651600, 651600, 651600, 651600, 651600, 651600, 651600, 651600, 651600, 651600, 651600, 651200, 651200, 651200, 651200, 651200, 651200, 651200, 651200, 651200, 651200, 651200, 651200, 651200, 651200, 651200, 651200, 651200, 651200, 651200, 651200, 651200, 651200, 651200, 651200, 651200, 651200, 651200, 651200, 651200, 651200, 651200, 651200, 651200, 651200, 651200, 651200, 651200, 651200, 651200, 651200, 651200, 651200, 651200, 651200, 651200, 651200, 651200, 651200, 651200, 651200, 651200, 651200, 651200]